54581
22, 16, 39, 46, 36, 15, 52, 42, 33, 1, 27, 31, 25, 11, 45, 14, 2, 9, 12, 18, 4, 30, 47, 54, 34, 53, 26, 49, 55, 28, 6, 3, 43, 40, 51, 13, 5, 37, 7, 20, 50, 35, 24, 38, 8, 44, 32, 41, 19, 48, 17, 23, 21, 29, 10
